param n := 120;
param c := 3000
param : V : p w :=
   0	 404	 394
   1	 290	 280
   2	 336	 326
   3	 380	 370
   4	 294	 284
   5	 356	 346
   6	 437	 427
   7	 269	 259
   8	 324	 314
   9	 440	 430
  10	 280	 270
  11	 310	 300
  12	 472	 462
  13	 271	 261
  14	 287	 277
  15	 366	 356
  16	 302	 292
  17	 362	 352
  18	 508	 498
  19	 260	 250
  20	 262	 252
  21	 442	 432
  22	 286	 276
  23	 302	 292
  24	 401	 391
  25	 262	 252
  26	 367	 357
  27	 407	 397
  28	 284	 274
  29	 339	 329
  30	 500	 490
  31	 261	 251
  32	 269	 259
  33	 418	 408
  34	 266	 256
  35	 346	 336
  36	 444	 434
  37	 272	 262
  38	 314	 304
  39	 492	 482
  40	 266	 256
  41	 272	 262
  42	 397	 387
  43	 285	 275
  44	 348	 338
  45	 372	 362
  46	 303	 293
  47	 355	 345
  48	 438	 428
  49	 294	 284
  50	 298	 288
  51	 418	 408
  52	 298	 288
  53	 314	 304
  54	 490	 480
  55	 260	 250
  56	 280	 270
  57	 404	 394
  58	 286	 276
  59	 340	 330
  60	 371	 361
  61	 263	 253
  62	 396	 386
  63	 385	 375
  64	 291	 281
  65	 354	 344
  66	 488	 478
  67	 261	 251
  68	 281	 271
  69	 488	 478
  70	 260	 250
  71	 282	 272
  72	 366	 356
  73	 286	 276
  74	 378	 368
  75	 397	 387
  76	 279	 269
  77	 354	 344
  78	 496	 486
  79	 262	 252
  80	 272	 262
  81	 424	 414
  82	 273	 263
  83	 333	 323
  84	 420	 410
  85	 260	 250
  86	 350	 340
  87	 410	 400
  88	 305	 295
  89	 315	 305
  90	 392	 382
  91	 292	 282
  92	 346	 336
  93	 444	 434
  94	 279	 269
  95	 307	 297
  96	 405	 395
  97	 288	 278
  98	 337	 327
  99	 363	 353
 100	 291	 281
 101	 376	 366
 102	 429	 419
 103	 295	 285
 104	 306	 296
 105	 372	 362
 106	 324	 314
 107	 334	 324
 108	 505	 495
 109	 261	 251
 110	 264	 254
 111	 509	 499
 112	 260	 250
 113	 261	 251
 114	 374	 364
 115	 299	 289
 116	 357	 347
 117	 508	 498
 118	 260	 250
 119	 262	 252
;

set E :=
   0	   4
   0	  11
   0	  13
   0	  14
   0	  19
   0	  35
   0	  36
   0	  44
   0	  51
   0	  59
   0	  60
   0	  62
   0	  65
   0	  70
   0	  84
   0	  89
   0	  90
   0	  92
   0	  93
   0	  96
   0	 104
   0	 105
   0	 118
   1	   9
   1	  10
   1	  12
   1	  14
   1	  17
   1	  21
   1	  24
   1	  34
   1	  36
   1	  40
   1	  45
   1	  47
   1	  50
   1	  53
   1	  54
   1	  60
   1	  62
   1	  67
   1	  68
   1	  76
   1	  82
   1	  84
   1	  89
   1	  90
   1	  93
   1	 101
   1	 104
   1	 105
   1	 119
   2	   5
   2	  12
   2	  18
   2	  20
   2	  22
   2	  23
   2	  24
   2	  31
   2	  33
   2	  38
   2	  39
   2	  44
   2	  72
   2	  73
   2	  77
   2	  93
   2	 102
   2	 111
   2	 114
   2	 116
   3	  13
   3	  31
   3	  34
   3	  38
   3	  39
   3	  42
   3	  47
   3	  48
   3	  56
   3	  64
   3	  65
   3	  87
   3	  88
   3	  90
   3	 101
   3	 104
   3	 105
   3	 106
   3	 108
   3	 115
   4	   5
   4	   7
   4	   9
   4	  10
   4	  13
   4	  29
   4	  34
   4	  35
   4	  36
   4	  52
   4	  55
   4	  60
   4	  61
   4	  66
   4	  70
   4	  74
   4	  79
   4	  81
   4	  83
   4	  89
   4	  93
   4	 108
   4	 110
   4	 113
   5	  27
   5	  44
   5	  49
   5	  51
   5	  68
   5	  71
   5	  72
   5	  78
   5	  84
   5	  87
   5	  89
   5	  91
   5	 105
   5	 108
   5	 119
   6	  10
   6	  12
   6	  24
   6	  26
   6	  33
   6	  37
   6	  38
   6	  42
   6	  43
   6	  47
   6	  50
   6	  55
   6	  57
   6	  58
   6	  71
   6	  72
   6	  80
   6	  82
   6	  85
   6	  86
   6	  87
   6	 105
   6	 119
   7	  10
   7	  18
   7	  24
   7	  25
   7	  26
   7	  27
   7	  29
   7	  34
   7	  36
   7	  38
   7	  43
   7	  48
   7	  52
   7	  63
   7	  66
   7	  72
   7	  74
   7	  80
   7	  84
   7	  89
   7	  95
   7	  96
   7	  99
   7	 101
   7	 110
   7	 113
   7	 119
   8	   9
   8	  10
   8	  16
   8	  33
   8	  35
   8	  44
   8	  53
   8	  54
   8	  57
   8	  71
   8	  72
   8	  81
   8	  85
   8	  92
   8	  93
   8	 101
   8	 102
   8	 103
   8	 106
   8	 107
   8	 113
   9	  11
   9	  17
   9	  23
   9	  24
   9	  28
   9	  36
   9	  38
   9	  42
   9	  47
   9	  55
   9	  64
   9	  75
   9	  78
   9	  85
   9	  87
   9	  94
   9	  95
   9	 102
   9	 104
   9	 105
   9	 106
   9	 115
  10	  13
  10	  19
  10	  22
  10	  23
  10	  26
  10	  27
  10	  32
  10	  33
  10	  47
  10	  53
  10	  60
  10	  61
  10	  74
  10	  77
  10	  86
  10	  91
  10	  94
  10	  98
  10	 100
  10	 103
  10	 104
  10	 108
  10	 109
  10	 110
  10	 111
  10	 112
  11	  17
  11	  41
  11	  45
  11	  51
  11	  58
  11	  60
  11	  64
  11	  73
  11	  76
  11	  78
  11	  79
  11	  81
  11	  88
  11	 100
  11	 103
  11	 104
  11	 111
  11	 114
  11	 117
  11	 118
  11	 119
  12	  21
  12	  26
  12	  27
  12	  29
  12	  33
  12	  37
  12	  39
  12	  42
  12	  53
  12	  55
  12	  57
  12	  60
  12	  61
  12	  64
  12	  68
  12	  72
  12	  73
  12	  79
  12	  90
  12	  92
  12	  95
  12	  96
  12	  97
  12	 105
  12	 106
  12	 112
  12	 113
  12	 114
  12	 115
  12	 117
  13	  26
  13	  29
  13	  38
  13	  43
  13	  55
  13	  56
  13	  68
  13	  69
  13	  76
  13	  79
  13	  82
  13	  88
  13	  94
  13	  95
  13	  98
  13	 106
  13	 108
  14	  20
  14	  21
  14	  22
  14	  29
  14	  33
  14	  38
  14	  39
  14	  42
  14	  49
  14	  50
  14	  57
  14	  67
  14	  72
  14	  73
  14	  76
  14	  79
  14	  83
  14	  92
  14	 102
  14	 109
  14	 117
  15	  16
  15	  17
  15	  18
  15	  19
  15	  24
  15	  28
  15	  30
  15	  31
  15	  32
  15	  38
  15	  47
  15	  53
  15	  58
  15	  72
  15	  73
  15	  74
  15	  88
  15	  95
  15	 107
  15	 113
  15	 115
  15	 118
  16	  22
  16	  25
  16	  27
  16	  37
  16	  42
  16	  45
  16	  49
  16	  54
  16	  63
  16	  64
  16	  73
  16	  80
  16	  81
  16	  83
  16	  85
  16	  87
  16	  89
  16	  92
  16	 103
  16	 104
  16	 106
  16	 111
  16	 115
  16	 118
  17	  20
  17	  24
  17	  28
  17	  36
  17	  53
  17	  58
  17	  60
  17	  72
  17	  77
  17	  89
  17	  94
  17	  96
  17	  97
  17	 102
  17	 118
  17	 119
  18	  23
  18	  27
  18	  29
  18	  44
  18	  48
  18	  58
  18	  60
  18	  63
  18	  70
  18	  73
  18	  74
  18	  79
  18	  84
  18	  85
  18	  89
  18	  91
  18	  92
  18	 100
  18	 103
  19	  22
  19	  23
  19	  29
  19	  32
  19	  34
  19	  51
  19	  55
  19	  66
  19	  73
  19	  75
  19	  81
  19	  84
  19	  85
  19	  86
  19	  95
  19	  97
  19	  99
  19	 101
  19	 102
  19	 109
  20	  22
  20	  23
  20	  25
  20	  29
  20	  31
  20	  33
  20	  34
  20	  35
  20	  46
  20	  47
  20	  51
  20	  58
  20	  65
  20	  69
  20	  72
  20	  73
  20	  74
  20	  83
  20	  85
  20	  89
  20	  90
  20	  91
  20	  93
  20	  98
  20	 103
  20	 116
  20	 119
  21	  26
  21	  31
  21	  35
  21	  46
  21	  49
  21	  50
  21	  56
  21	  72
  21	  78
  21	  87
  21	  92
  21	 103
  21	 107
  21	 111
  21	 114
  21	 115
  22	  33
  22	  34
  22	  39
  22	  45
  22	  53
  22	  56
  22	  60
  22	  61
  22	  65
  22	  67
  22	  70
  22	  76
  22	  89
  22	  90
  22	  95
  22	  98
  23	  27
  23	  32
  23	  35
  23	  39
  23	  44
  23	  50
  23	  57
  23	  58
  23	  59
  23	  67
  23	  69
  23	  76
  23	  78
  23	  82
  23	  88
  23	  91
  23	  93
  23	  94
  23	 101
  23	 111
  23	 115
  24	  28
  24	  30
  24	  50
  24	  51
  24	  52
  24	  56
  24	  60
  24	  62
  24	  68
  24	  71
  24	  81
  24	  87
  24	  94
  24	  95
  24	  99
  24	 102
  24	 104
  24	 111
  24	 115
  24	 116
  25	  38
  25	  44
  25	  59
  25	  67
  25	  71
  25	  75
  25	  76
  25	  78
  25	  86
  25	  87
  25	  88
  25	  89
  25	  92
  25	 102
  25	 105
  25	 109
  26	  29
  26	  39
  26	  45
  26	  47
  26	  49
  26	  51
  26	  52
  26	  55
  26	  56
  26	  62
  26	  63
  26	  66
  26	  73
  26	  81
  26	  83
  26	  87
  26	  92
  26	 101
  26	 102
  26	 103
  26	 107
  26	 110
  26	 112
  26	 117
  27	  32
  27	  36
  27	  37
  27	  39
  27	  48
  27	  49
  27	  51
  27	  52
  27	  57
  27	  63
  27	  70
  27	  74
  27	  80
  27	  82
  27	  93
  27	  99
  27	 101
  27	 107
  27	 110
  27	 114
  27	 116
  28	  36
  28	  44
  28	  49
  28	  50
  28	  52
  28	  58
  28	  68
  28	  73
  28	  77
  28	  79
  28	  91
  28	  94
  28	  95
  28	 100
  28	 101
  28	 107
  28	 110
  28	 111
  28	 112
  28	 118
  29	  32
  29	  37
  29	  38
  29	  47
  29	  59
  29	  65
  29	  72
  29	  79
  29	  80
  29	  83
  29	  85
  29	  93
  29	  95
  29	 102
  29	 111
  29	 113
  29	 118
  30	  34
  30	  43
  30	  44
  30	  49
  30	  52
  30	  55
  30	  57
  30	  60
  30	  65
  30	  77
  30	  84
  30	  88
  30	  90
  30	 103
  31	  35
  31	  37
  31	  39
  31	  47
  31	  48
  31	  50
  31	  52
  31	  54
  31	  55
  31	  58
  31	  61
  31	  65
  31	  71
  31	  77
  31	  84
  31	  88
  31	  95
  31	  96
  31	 101
  31	 114
  32	  40
  32	  42
  32	  43
  32	  47
  32	  58
  32	  60
  32	  69
  32	  71
  32	  74
  32	  76
  32	  86
  32	  88
  32	  96
  32	  97
  32	 100
  32	 103
  32	 104
  32	 108
  32	 111
  32	 117
  32	 118
  33	  60
  33	  73
  33	  74
  33	  75
  33	  78
  33	  81
  33	  95
  33	  97
  33	  98
  33	 101
  33	 105
  33	 106
  33	 110
  34	  42
  34	  48
  34	  51
  34	  52
  34	  53
  34	  54
  34	  64
  34	  89
  34	  92
  34	 118
  35	  37
  35	  52
  35	  58
  35	  59
  35	  62
  35	  70
  35	  72
  35	  77
  35	  80
  35	  83
  35	  94
  35	  99
  35	 110
  35	 118
  36	  38
  36	  40
  36	  44
  36	  48
  36	  50
  36	  51
  36	  58
  36	  59
  36	  66
  36	  82
  36	  86
  36	  93
  36	  94
  36	 112
  36	 113
  37	  48
  37	  52
  37	  54
  37	  65
  37	  70
  37	  74
  37	  78
  37	  92
  37	  97
  37	 102
  37	 103
  37	 105
  37	 117
  37	 119
  38	  43
  38	  48
  38	  52
  38	  53
  38	  54
  38	  60
  38	  71
  38	  72
  38	  74
  38	  80
  38	  85
  38	 101
  38	 104
  38	 107
  38	 112
  38	 115
  39	  41
  39	  46
  39	  50
  39	  56
  39	  61
  39	  62
  39	  63
  39	  70
  39	  75
  39	  80
  39	  83
  39	  85
  39	  89
  39	  96
  39	 102
  39	 109
  39	 110
  39	 111
  39	 112
  40	  41
  40	  54
  40	  60
  40	  64
  40	  69
  40	  73
  40	  97
  40	  98
  40	 100
  40	 111
  40	 113
  40	 117
  41	  42
  41	  45
  41	  51
  41	  52
  41	  54
  41	  64
  41	  65
  41	  66
  41	  67
  41	  68
  41	  76
  41	  82
  41	  84
  41	  86
  41	  90
  41	  98
  41	  99
  41	 103
  41	 110
  41	 117
  42	  52
  42	  66
  42	  69
  42	  71
  42	  77
  42	  85
  42	  88
  42	  89
  42	  95
  42	 100
  42	 101
  42	 104
  42	 107
  42	 118
  43	  45
  43	  47
  43	  49
  43	  50
  43	  51
  43	  53
  43	  62
  43	  74
  43	  91
  43	  92
  43	  95
  43	 110
  43	 113
  43	 114
  43	 116
  43	 119
  44	  48
  44	  57
  44	  61
  44	  69
  44	  74
  44	  78
  44	  83
  44	  95
  44	 100
  44	 105
  44	 117
  45	  52
  45	  56
  45	  60
  45	  62
  45	  65
  45	  66
  45	  73
  45	  83
  45	  85
  45	  86
  45	  87
  45	  88
  45	  91
  45	  92
  45	  93
  45	 101
  45	 102
  46	  49
  46	  51
  46	  55
  46	  59
  46	  60
  46	  62
  46	  66
  46	  67
  46	  68
  46	  73
  46	  81
  46	  84
  46	  97
  46	 101
  46	 107
  46	 108
  46	 116
  46	 117
  47	  50
  47	  56
  47	  60
  47	  62
  47	  67
  47	  71
  47	  88
  47	  96
  47	  98
  47	 101
  47	 104
  47	 105
  48	  50
  48	  53
  48	  54
  48	  56
  48	  59
  48	  63
  48	  67
  48	  82
  48	  85
  48	  87
  48	  92
  48	  94
  48	  97
  48	 107
  48	 109
  48	 112
  48	 118
  49	  53
  49	  56
  49	  59
  49	  64
  49	  72
  49	  74
  49	  87
  49	  97
  49	 114
  49	 117
  50	  52
  50	  55
  50	  64
  50	  77
  50	  81
  50	  84
  50	  89
  50	  94
  50	  95
  50	  98
  50	 100
  50	 118
  51	  64
  51	  67
  51	  73
  51	  86
  51	  87
  51	  88
  51	  92
  51	 102
  51	 108
  51	 112
  52	  62
  52	  68
  52	  69
  52	  72
  52	  85
  52	  86
  52	  90
  52	  91
  52	  98
  52	  99
  52	 102
  52	 104
  52	 105
  52	 112
  52	 114
  53	  56
  53	  58
  53	  62
  53	  68
  53	  69
  53	  73
  53	  93
  53	  94
  53	 104
  53	 109
  53	 118
  54	  55
  54	  64
  54	  65
  54	  68
  54	  69
  54	  75
  54	  80
  54	  93
  54	 106
  54	 108
  54	 116
  55	  62
  55	  66
  55	  67
  55	  71
  55	  75
  55	  77
  55	 103
  56	  59
  56	  60
  56	  62
  56	  68
  56	  85
  56	  90
  56	  92
  56	  93
  56	 107
  57	  58
  57	  66
  57	  76
  57	  80
  57	  88
  57	  90
  57	  93
  57	  97
  57	 107
  57	 118
  58	  70
  58	  71
  58	  73
  58	  77
  58	  79
  58	  97
  58	  98
  58	  99
  58	 102
  58	 106
  58	 117
  59	  62
  59	  66
  59	  67
  59	  74
  59	  77
  59	  78
  59	  87
  59	  93
  59	  95
  59	  97
  59	 101
  59	 112
  59	 113
  60	  67
  60	  74
  60	  89
  60	  92
  60	  93
  60	  99
  60	 100
  60	 116
  61	  66
  61	  67
  61	  72
  61	  74
  61	  78
  61	  82
  61	  94
  61	  98
  61	 107
  61	 111
  61	 113
  62	  66
  62	  74
  62	  79
  62	  82
  62	  87
  62	  90
  62	  98
  62	 101
  62	 103
  62	 106
  62	 107
  62	 112
  62	 115
  62	 118
  63	  69
  63	  80
  63	  83
  63	  85
  63	  86
  63	  89
  63	  91
  63	  95
  63	  98
  63	 103
  63	 104
  63	 108
  63	 113
  64	  65
  64	  73
  64	  75
  64	  76
  64	  77
  64	  78
  64	  85
  64	  86
  64	  93
  64	  95
  64	 112
  65	  72
  65	  73
  65	  75
  65	  94
  65	  97
  65	 102
  65	 104
  65	 109
  65	 112
  65	 118
  66	  77
  66	  79
  66	  87
  66	  89
  66	  92
  66	  94
  66	 101
  66	 102
  66	 111
  66	 114
  66	 115
  67	  70
  67	  72
  67	  77
  67	  88
  67	 106
  67	 109
  67	 117
  67	 118
  68	  73
  68	  74
  68	  75
  68	  85
  68	  87
  68	  88
  68	  90
  68	  95
  68	  97
  68	  99
  68	 102
  68	 103
  68	 104
  68	 107
  68	 112
  68	 118
  69	  73
  69	  74
  69	  76
  69	  78
  69	  84
  69	  92
  69	 102
  69	 105
  69	 107
  69	 108
  69	 110
  69	 114
  69	 117
  69	 118
  70	  77
  70	  79
  70	  80
  70	  85
  70	  87
  70	  94
  70	 103
  70	 108
  70	 110
  70	 114
  71	  75
  71	  78
  71	  79
  71	  89
  71	  94
  71	 104
  71	 106
  71	 107
  71	 113
  72	  76
  72	  83
  72	  85
  72	  88
  72	  95
  72	  99
  72	 101
  72	 109
  72	 119
  73	  75
  73	  84
  73	  87
  73	  88
  73	 100
  73	 103
  73	 105
  73	 117
  74	  84
  74	  85
  74	  87
  74	  90
  74	 105
  74	 106
  74	 108
  74	 110
  74	 116
  74	 118
  74	 119
  75	  77
  75	  79
  75	  88
  75	  91
  75	  93
  75	  99
  75	 100
  75	 106
  75	 115
  76	  86
  76	  95
  76	  97
  76	 106
  76	 111
  76	 113
  76	 116
  77	  79
  77	  84
  77	  86
  77	  91
  77	  93
  77	  94
  77	 103
  77	 106
  77	 112
  77	 113
  77	 114
  77	 115
  77	 119
  78	  87
  78	  98
  78	  99
  78	 104
  78	 113
  78	 117
  79	  80
  79	  88
  79	  90
  79	  91
  79	 104
  79	 107
  79	 108
  79	 113
  79	 118
  79	 119
  80	  89
  80	  90
  80	  94
  80	 100
  80	 104
  80	 107
  80	 111
  81	  82
  81	  85
  81	  90
  81	  94
  81	  95
  81	 100
  81	 103
  81	 105
  81	 112
  81	 118
  82	  83
  82	  90
  82	  92
  82	  98
  82	 109
  82	 115
  83	  91
  83	  93
  83	  97
  83	 101
  83	 102
  83	 108
  83	 109
  83	 110
  83	 111
  83	 114
  83	 117
  84	  86
  84	  95
  84	  97
  84	 100
  84	 101
  84	 105
  84	 107
  84	 111
  84	 112
  84	 117
  85	  91
  85	  94
  85	  99
  85	 109
  86	  95
  86	  96
  86	  98
  86	 110
  87	  88
  87	  94
  87	  98
  87	 101
  87	 113
  87	 117
  88	  90
  88	  93
  88	  99
  88	 101
  88	 105
  88	 106
  88	 109
  88	 110
  89	 104
  89	 106
  89	 108
  89	 110
  89	 111
  89	 112
  89	 114
  90	  91
  90	  94
  90	  97
  90	 101
  90	 105
  90	 114
  90	 115
  90	 118
  91	  95
  91	  96
  91	  97
  91	  99
  91	 100
  91	 102
  91	 106
  91	 114
  91	 116
  91	 117
  92	  96
  92	  99
  92	 103
  92	 108
  92	 109
  92	 116
  93	  94
  93	  97
  93	 101
  93	 110
  93	 115
  93	 119
  94	  95
  94	 106
  94	 107
  94	 112
  94	 115
  94	 116
  95	  96
  95	  98
  95	 106
  95	 108
  95	 110
  95	 119
  96	  98
  96	 103
  96	 113
  96	 117
  96	 118
  97	 100
  97	 105
  97	 109
  97	 114
  97	 117
  98	 104
  98	 110
  98	 112
  98	 116
  98	 119
  99	 101
  99	 105
  99	 109
  99	 110
  99	 115
  99	 117
  99	 119
 100	 102
 100	 105
 100	 108
 100	 119
 101	 104
 101	 105
 101	 110
 101	 114
 101	 117
 102	 105
 102	 113
 102	 118
 103	 105
 104	 105
 104	 106
 104	 111
 104	 117
 105	 111
 105	 112
 105	 114
 105	 118
 105	 119
 106	 108
 106	 113
 106	 114
 107	 109
 107	 112
 107	 114
 107	 119
 108	 110
 108	 111
 108	 117
 109	 112
 109	 114
 109	 118
 110	 113
 110	 115
 111	 117
 112	 114
 112	 115
 112	 119
 113	 115
 113	 119
 116	 119
 117	 119
;
